0 47196 
1 45172 
2 44802 
3 43404 
4 42700 
5 42600 
6 39500 
7 37450 
8 35978 
9 35926 
10 35184 
11 34160 
12 33976 
13 33368 
14 33184 
15 32568 
16 32302 
17 30552 
18 30444 
19 28284 
20 28242 
21 28222 
22 28106 
23 27624 
24 27120 
25 26992 
26 26334 
27 26146 
28 26032 
29 25824 
30 25574 
31 25518 
32 25230 
33 25090 
34 25026 
35 22432 
36 22032 
37 22000 
38 21054 
39 20852 
40 20746 
41 20650 
42 20628 
43 20248 
44 17180 
45 16796 
46 15242 
47 13440 
48 13398 
49 13350 
50 13142 
51 12420 
52 11900 
53 11768 
54 11768 

